NAME          
ROWS
 N  OBJ
 G  y_con
 G  zcon
 G  z_con
 E  c1
COLUMNS
     z[9]     z_con    1
     z[9]     OBJ      -1
     z[7]     z_con    1
     z[7]     OBJ      -1
     z[4]     z_con    1
     z[4]     OBJ      -1
     z[1]     z_con    1
     z[1]     OBJ      -1
     z[5]     z_con    1
     z[5]     OBJ      -1
     z[3]     z_con    1
     z[3]     OBJ      -1
     y[2]     y_con    1
     y[2]     z_con    1
     y[2]     OBJ      -5
     z[10]    z_con    1
     z[10]    OBJ      -1
     z[8]     z_con    1
     z[8]     OBJ      -1
    MARKER    'MARKER'                 'INTORG'
     d        OBJ      -1
    MARKER    'MARKER'                 'INTEND'
    MARKER    'MARKER'                 'INTORG'
     z_a[1]   zcon     1
     z_a[1]   c1       2
     z_a[1]   OBJ      -1
    MARKER    'MARKER'                 'INTEND'
     z[6]     z_con    1
     z[6]     OBJ      -1
     y[1]     y_con    1
     y[1]     z_con    1
     y[1]     OBJ      -5
     ξ        zcon     3
     ξ        OBJ      -3
    MARKER    'MARKER'                 'INTORG'
     z_a[2]   zcon     1
     z_a[2]   c1       1
     z_a[2]   OBJ      -1
    MARKER    'MARKER'                 'INTEND'
     z[2]     z_con    1
     z[2]     OBJ      -1
RHS
    rhs       y_con     5
    rhs       zcon      7
    rhs       z_con     5
    rhs       c1        3
RANGES
BOUNDS
 LO bounds    z[1]     0
 UP bounds    z[1]     1
 LO bounds    z[10]    0
 UP bounds    z[10]    1
 LO bounds    z[6]     0
 UP bounds    z[6]     1
 LO bounds    z[8]     0
 UP bounds    z[8]     1
 LO bounds    z[9]     0
 UP bounds    z[9]     1
 LO bounds    z[7]     0
 UP bounds    z[7]     1
 LO bounds    z[5]     0
 UP bounds    z[5]     1
 LO bounds    z[3]     0
 UP bounds    z[3]     1
 LO bounds    z[2]     0
 UP bounds    z[2]     1
 LO bounds    z[4]     0
 UP bounds    z[4]     1
 LO bounds    y[2]     2
 PL bounds    y[2]    
 LO bounds    y[1]     1
 PL bounds    y[1]    
 FX bounds    ξ        30
 BV bounds    z_a[1]
 BV bounds    z_a[2]
 FR bounds    d
ENDATA
